pure_adt/isaplanner_prop_07.smt2
(set-logic HORN)
(declare-datatypes ((Nat_131 0)) (((Z_371 ) (S_131 (projS_126 Nat_131)))))
(declare-fun diseqNat_131 (Nat_131 Nat_131) Bool)
(declare-fun projS_127 (Nat_131 Nat_131) Bool)
(declare-fun isZ_131 (Nat_131) Bool)
(declare-fun isS_131 (Nat_131) Bool)
(assert (forall ((x_3625 Nat_131))
	(projS_127 x_3625 (S_131 x_3625))))
(assert (isZ_131 Z_371))
(assert (forall ((x_3627 Nat_131))
	(isS_131 (S_131 x_3627))))
(assert (forall ((x_3628 Nat_131))
	(diseqNat_131 Z_371 (S_131 x_3628))))
(assert (forall ((x_3629 Nat_131))
	(diseqNat_131 (S_131 x_3629) Z_371)))
(assert (forall ((x_3630 Nat_131) (x_3631 Nat_131))
	(=> (diseqNat_131 x_3630 x_3631)
	    (diseqNat_131 (S_131 x_3630) (S_131 x_3631)))))
(declare-fun x_3609 (Nat_131 Nat_131 Nat_131) Bool)
(assert (forall ((x_3614 Nat_131) (x_3611 Nat_131) (z_372 Nat_131))
	(=> (x_3609 x_3614 z_372 x_3611)
	    (x_3609 x_3614 (S_131 z_372) (S_131 x_3611)))))
(assert (forall ((z_372 Nat_131))
	(x_3609 (S_131 z_372) (S_131 z_372) Z_371)))
(assert (forall ((y_294 Nat_131))
	(x_3609 Z_371 Z_371 y_294)))
(declare-fun x_3612 (Nat_131 Nat_131 Nat_131) Bool)
(assert (forall ((x_3619 Nat_131) (z_373 Nat_131) (y_295 Nat_131))
	(=> (x_3612 x_3619 z_373 y_295)
	    (x_3612 (S_131 x_3619) (S_131 z_373) y_295))))
(assert (forall ((x_3620 Nat_131))
	(x_3612 x_3620 Z_371 x_3620)))
(assert (forall ((x_3621 Nat_131) (x_3622 Nat_131) (n_26 Nat_131) (m_13 Nat_131))
	(=>	(and true
			(diseqNat_131 x_3622 m_13)
			(x_3612 x_3621 n_26 m_13)
			(x_3609 x_3622 x_3621 n_26))
		false)))
(check-sat)
